problems/csplib-prob030/BalancedAcademicCurriculumProblem-models/compact/O2/minion/model-bacp-21-solution000001.eprime-solution
language ESSENCE' 1.0

letting curr_Function1D be
        [2, 3, 1, 1, 2, 2, 2, 2, 1, 1, 1, 1, 8, 1, 8, 7, 7, 7, 7, 7, 9, 6, 1, 6, 6, 6, 6, 1, 9, 5, 5, 5, 4, 4, 4, 3, 3,
         3, 3, 10, 3, 3, 3, 1, 2, 10, 2, 2, 2, 2;
             int(1..50)]
