problems/csplib-prob030/BalancedAcademicCurriculumProblem-models/noch/O0/minion/model-bacp-21-solution000001.solution
language Essence 1.3

letting curr be
        function(1 --> 2, 2 --> 3, 3 --> 1, 4 --> 1, 5 --> 2, 6 --> 2, 7 --> 2, 8 --> 2, 9 --> 1, 10 --> 1, 11 --> 1,
                 12 --> 1, 13 --> 8, 14 --> 1, 15 --> 8, 16 --> 7, 17 --> 7, 18 --> 7, 19 --> 7, 20 --> 7, 21 --> 9,
                 22 --> 6, 23 --> 1, 24 --> 6, 25 --> 6, 26 --> 6, 27 --> 6, 28 --> 1, 29 --> 9, 30 --> 5, 31 --> 5,
                 32 --> 5, 33 --> 4, 34 --> 4, 35 --> 4, 36 --> 3, 37 --> 3, 38 --> 3, 39 --> 3, 40 --> 10, 41 --> 3,
                 42 --> 3, 43 --> 3, 44 --> 1, 45 --> 2, 46 --> 10, 47 --> 2, 48 --> 2, 49 --> 2, 50 --> 2)
